NAME : S-G-200-1.2029.tour
COMMENT : Length = 2029
COMMENT : Found by LKH [Keld Helsgaun] Thu May 17 23:18:21 2018
TYPE : TOUR
DIMENSION : 31
TOUR_SECTION
1
20
17
24
23
28
22
13
5
2
12
4
30
26
27
18
29
21
31
10
7
3
15
8
19
9
14
16
11
6
25
-1
EOF
